POSCAR file written by OVITO
1
10.2830401 0.0 0.0
-0.1512127 10.103137 0.0
0.0454205 0.0447939 10.0453777
H C 
4 1 
Cartesian
4.4769702 3.881 4.6794
5.3538199 4.8859302 3.40639
6.0984702 4.6019902 5.0578399
4.5646701 5.6272898 4.8768502
5.1153598 4.7555299 4.45608
