POSCAR file written by OVITO
1
10.2510615 0.0 0.0
-0.2045252 9.7271137 0.0
-0.1997758 0.0336085 10.2261515
H C 
4 1 
Cartesian
5.4590702 3.6566999 4.7660699
5.07161 5.2880902 5.3307901
3.9217 4.4449301 4.3273802
5.5239401 4.9417902 3.6598699
4.9556198 4.5672899 4.5509401
