POSCAR file written by OVITO
1
10.1895285 0.0 0.0
0.0344264 9.9549762 0.0
-0.0094449 0.085527 9.874858
H C 
4 1 
Cartesian
5.4070201 3.8843502 5.0982199
5.47508 5.66748 4.7788801
4.0524302 4.6314702 4.2290702
5.6104799 4.4465599 3.39377
5.12885 4.71525 4.39325
