POSCAR file written by OVITO
1
9.888299 0.0 0.0
0.2133294 10.0907984 0.0
0.0527356 0.0794372 10.2274933
H C 
4 1 
Cartesian
4.37185 5.0878501 5.38411
4.4028101 4.2460799 3.8176899
5.7993598 4.0798998 4.9860102
5.56954 5.6389098 4.06843
5.1054301 4.7594099 4.5363002
