POSCAR file written by OVITO
1
10.0066195 0.0 0.0
-0.2212445 9.7418852 0.0
-0.082073 0.2414281 10.2216263
H C 
4 1 
Cartesian
4.3076 4.3428702 3.7252801
4.5128198 4.0883002 5.3635998
4.6230502 5.7606702 4.6142998
5.93076 4.4681902 4.2604599
4.9046302 4.6726299 4.5576301
