POSCAR file written by OVITO
1
10.1895285 0.0 0.0
0.0344264 9.9549762 0.0
-0.0094449 0.085527 9.874858
H C 
4 1 
Cartesian
5.8343001 4.0971799 4.9871402
5.4001298 5.7347298 4.2218099
4.16467 4.7017398 4.8642202
5.1027098 4.0802002 3.45226
5.1324501 4.71659 4.39112
