POSCAR file written by OVITO
1
10.2830401 0.0 0.0
-0.1512127 10.103137 0.0
0.0454205 0.0447939 10.0453777
H C 
4 1 
Cartesian
5.1893401 3.67486 4.1845698
4.4840398 5.36832 3.7236901
6.10042 5.2597699 4.4424901
4.6532502 4.8305202 5.4695001
5.1209302 4.7440901 4.4727602
