POSCAR file written by OVITO
1
10.0066195 0.0 0.0
-0.2212445 9.7418852 0.0
-0.082073 0.2414281 10.2216263
H C 
4 1 
Cartesian
4.20013 3.8160999 4.8046899
5.8340802 4.3006702 4.0936999
5.04596 5.1827502 5.48035
4.2971602 5.2465401 3.80684
4.9043698 4.6821299 4.5391302
