POSCAR file written by OVITO
1
10.0066195 0.0 0.0
-0.2212445 9.7418852 0.0
-0.082073 0.2414281 10.2216263
H C 
4 1 
Cartesian
4.1244001 4.2733598 3.8977102
5.0250702 4.0640998 5.4176402
4.6436 5.7055898 4.9345498
5.84552 4.7309499 4.0146599
4.8825998 4.6631298 4.5325499
