POSCAR file written by OVITO
1
10.1895285 0.0 0.0
0.0344264 9.9549762 0.0
-0.0094449 0.085527 9.874858
H C 
4 1 
Cartesian
6.1338902 4.3221302 4.5869799
5.0343499 5.5658999 3.73943
4.6372299 4.9331398 5.3153701
4.7056198 3.79774 3.91602
5.13168 4.7161699 4.3884301
