POSCAR file written by OVITO
1
10.2510615 0.0 0.0
-0.2045252 9.7271137 0.0
-0.1997758 0.0336085 10.2261515
H C 
4 1 
Cartesian
5.6511898 3.77038 4.82019
5.2055602 5.4814501 5.15342
3.90672 4.3090501 4.6496201
5.1979799 4.7902003 3.4368
4.9568602 4.56566 4.5529399
