POSCAR file written by OVITO
1
10.0066195 0.0 0.0
-0.2212445 9.7418852 0.0
-0.082073 0.2414281 10.2216263
H C 
4 1 
Cartesian
3.98327 4.0444598 4.39293
5.6287799 3.95059 4.88126
4.5890999 5.4398098 5.2828002
5.0884099 5.1407099 3.56459
4.9116902 4.6796699 4.5444598
