POSCAR file written by OVITO
1
10.0066195 0.0 0.0
-0.2212445 9.7418852 0.0
-0.082073 0.2414281 10.2216263
H C 
4 1 
Cartesian
4.0369 4.2140999 4.0479298
5.1106 3.90941 5.2810202
4.4882202 5.66641 4.93502
5.6472802 4.8505202 3.7564001
4.91223 4.6742602 4.5528999
