POSCAR file written by OVITO
1
10.0066195 0.0 0.0
-0.2212445 9.7418852 0.0
-0.082073 0.2414281 10.2216263
H C 
4 1 
Cartesian
4.0630899 3.93619 4.6398702
5.8264199 4.1309199 4.4461599
4.8326001 5.2588301 5.4311099
4.6325202 5.23241 3.6422999
4.90626 4.6810999 4.5413099
