POSCAR file written by OVITO
1
10.2695751 0.0 0.0
-0.25566 9.8828678 0.0
0.1129904 -0.1480189 9.8096409
H C 
4 1 
Cartesian
5.4225502 4.84511 3.3583501
4.0948501 4.90592 4.5352502
5.8228698 4.9115702 5.09268
5.1051102 3.4379499 4.4618001
5.0858498 4.57899 4.3621001
