POSCAR file written by OVITO
1
10.0066195 0.0 0.0
-0.2212445 9.7418852 0.0
-0.082073 0.2414281 10.2216263
H C 
4 1 
Cartesian
4.2477698 4.3369799 3.76962
4.8575302 4.0868802 5.4372602
4.6504503 5.74507 4.7961302
5.91493 4.5819502 4.18257
4.87993 4.6650601 4.5391302
