POSCAR file written by OVITO
1
10.0066195 0.0 0.0
-0.2212445 9.7418852 0.0
-0.082073 0.2414281 10.2216263
H C 
4 1 
Cartesian
4.6240702 4.3220201 3.53826
4.1018901 4.3166299 5.22011
4.8273702 5.78754 4.4411302
5.8855902 4.2164602 4.75944
4.89924 4.6740799 4.5580201
