POSCAR file written by OVITO
1
10.2695751 0.0 0.0
-0.25566 9.8828678 0.0
0.1129904 -0.1480189 9.8096409
H C 
4 1 
Cartesian
5.5366102 5.2309499 3.60373
4.1455002 4.90757 4.7277098
5.78125 4.4021402 5.2035399
4.9678202 3.5485201 3.8614
5.0870299 4.5799399 4.3664098
