POSCAR file written by OVITO
1
10.0066195 0.0 0.0
-0.2212445 9.7418852 0.0
-0.082073 0.2414281 10.2216263
H C 
4 1 
Cartesian
4.4355402 3.7107501 4.86657
5.6904702 4.4598899 3.80985
5.22121 5.14713 5.4443598
4.0509 5.2109099 4.0848098
4.90264 4.6835699 4.5374599
